nbNodes = 12;
nbVehi = 3;
nbServi = 4;

e = 
 [ 0,  388,  436,  104,  220,   70,  328,  398,  446,  177,  359,    0,];

l = 
 [480, 480, 520, 166, 320, 151, 407, 504, 519, 244, 459, 480,];

a = 
 [|  1,  1,  1,  1,
 |  0,  1,  0,  1,
 |  1,  1,  1,  0,
 |];

p = array3d(1..nbNodes,1..nbVehi,1..nbServi,
[  0,  0,  0,  0,	  0,  0,  0,  0,	  0,  0,  0,  0,	
 41, 28, 15, 55,	 42, 54, 44, 47,	 28, 22, 52, 47,	
 56, 24, 15, 20,	 15, 27, 41, 29,	 54, 50, 57, 15,	
 26, 41, 22, 25,	 31, 17, 49, 48,	 40, 32, 12, 47,	
 41, 32, 51, 57,	 16, 42, 51, 40,	 49, 33, 17, 22,	
 32, 22, 16, 15,	 15, 45, 51, 32,	 25, 21, 39, 47,	
 20, 12, 13, 28,	 25, 10, 31, 48,	 39, 30, 37, 20,	
 42, 28, 36, 46,	 21, 11, 42, 44,	 45, 42, 33, 12,	
 12, 27, 51, 29,	 30, 28, 41, 40,	 30, 20, 14, 21,	
 17, 14, 43, 10,	 24, 12, 46, 53,	 38, 48, 25, 48,	
 53, 39, 38, 30,	 30, 21, 32, 48,	 18, 32, 55, 32,	
  0,  0,  0,  0,	  0,  0,  0,  0,	  0,  0,  0,  0,	
]);

rs = 
[|  true,  true,  true,  true,	 	
|  false,  false,  true,  false,	  	
|  true,  false,  false,  false,	  	
|  false,  false,  false,  true,	  	
|  false,  false,  false,  true,	  	
|  true,  false,  false,  false,	  	
|  true,  false,  false,  false,	  	
|  false,  false,  false,  true,	  	
|  false,  true,  false,  false,	  	
|  false,  true,  false,  false,	  	
|  false,  false,  true,  false,	  	
|  true,  true,  true,  true,	  	
|];

d=[|0, 24, 0, 0, 10, 3, 13, 25, 3, 11, 2, 0, 
|24, 0, 24, 24, 34, 21, 36, 33, 27, 31, 23, 24, 
|0, 24, 0, 0, 10, 3, 13, 25, 3, 11, 2, 0, 
|0, 24, 0, 0, 10, 3, 13, 25, 3, 11, 2, 0, 
|10, 34, 10, 10, 0, 13, 7, 26, 7, 12, 11, 10, 
|3, 21, 3, 3, 13, 0, 15, 26, 6, 12, 4, 3, 
|13, 36, 13, 13, 7, 15, 0, 34, 10, 6, 15, 13, 
|25, 33, 25, 25, 26, 26, 34, 0, 26, 36, 23, 25, 
|3, 27, 3, 3, 7, 6, 10, 26, 0, 9, 5, 3, 
|11, 31, 11, 11, 12, 12, 6, 36, 9, 0, 13, 11, 
|2, 23, 2, 2, 11, 4, 15, 23, 5, 13, 0, 2, 
|0, 24, 0, 0, 10, 3, 13, 25, 3, 11, 2, 0, 
|];
